0000000000000000
0000000000000000
0000000111000000
0000000011000000
0000000011000000
0000000011000000
0000000011000000
0000000011000000
0000000011000000
0000000011000000
0000000011000000
0000000011000000
0000000011000000
0000000011000000
0000000000000000
0000000000000000